c 1 A1
c 2 A2
c 3 C3
c 4 C4
c 5 C5
c 6 C6
c 7 C7
c 8 C9
c 9 C10
c 10 A8
c 11 C12
c 12 A11
c 13 C13
c 14 C14
c 15 C15
c 16 C16
c 17 A17
c 18 C18
c 19 C19
c 20 C20
c 21 C21
c 22 C22
c 23 C23
c 24 C24
c 25 C25
c 26 C26
p cnf 26 35
1 0
1 -2 0
2 -3 0
2 -4 0
2 -5 0
2 -6 0
2 -7 0
2 -10 0
2 -8 0
2 -9 0
3 4 5 6 7 10 8 9 -2 0
10 -12 0
10 -11 0
11 -10 0
12 -13 0
12 -14 0
12 -15 0
12 -16 0
12 -17 0
17 -18 0
17 -19 0
17 -20 0
17 -21 0
17 -22 0
17 -23 0
17 -24 0
17 -25 0
17 -26 0
19 -17 0
22 -17 0
26 -17 0
12 -11 -4 0
2 0
9 0
19 0